c Random generated cnf formula, satisfiable: true
p cnf 10 50
-9 6 2 0
10 -7 3 0
6 -1 -3 0
6 -10 -4 0
9 1 7 0
6 10 -3 0
1 8 -5 0
7 -2 4 0
10 8 -4 0
2 -8 -1 0
2 -9 6 0
-9 -7 -10 0
9 -7 5 0
1 8 -5 0
-9 8 -2 0
-4 -6 9 0
6 8 -2 0
-2 1 -3 0
-4 8 -9 0
-5 10 -2 0
-10 -1 -9 0
8 10 9 0
-9 -10 -4 0
-9 -4 6 0
6 -9 4 0
9 -1 -10 0
4 6 -7 0
5 3 1 0
-7 -10 3 0
10 -8 5 0
-2 -1 -6 0
-2 9 6 0
5 10 1 0
4 9 10 0
-9 -2 -8 0
-7 -8 -3 0
-10 6 7 0
9 5 -10 0
-8 -3 -1 0
8 7 -4 0
-6 -7 4 0
10 -6 -5 0
-10 -7 4 0
10 -5 -3 0
-4 10 8 0
-4 6 -8 0
6 -8 7 0
-4 -6 -3 0
8 -1 -7 0
-5 -2 9 0
